Route #1: 24 49 23 56 43 41 42 64 22 61 21 28
Route #2: 35 19 54 5 47 36 69 71 60 70 20 37 15 57 13 27
Route #3: 58 10 31 25 55 18 50 32 9 39 72 12
Route #4: 38 11 65 66 59 14 53 7 8
Route #5: 45 29 48 74 62 1 73 16 63 33 2 30
Route #6: 67 46 52 34 4
Route #7: 75 68 6 51 3 44 40 17 26
Cost 747.1673385768779